s td 84 8 91
b 1 1 2 14
b 2 12 13 26
b 3 66 79 80
b 4 78 90 91
b 5 2 3 14 15
b 6 11 12 25 26
b 7 3 4 17 31 45 59 73 87
b 8 4 5 17 31 45 59 73 87
b 9 5 17 19 31 45 59 73 87
b 10 5 19 31 33 45 59 73 87
b 11 5 19 33 45 47 59 73 87
b 12 5 19 33 47 59 61 73 87
b 13 5 7 19 33 47 61 73 87
b 14 5 6 7 19
b 15 7 19 21 33 47 61 73 87
b 16 7 21 33 35 47 61 73 87
b 17 7 21 35 47 49 61 73 87
b 18 7 21 35 49 61 73 75 87
b 19 7 21 35 49 61 63 75 87
b 20 7 9 21 35 49 63 75 87
b 21 7 8 9 21
b 22 9 21 23 35 49 63 75 87
b 23 9 23 35 37 49 63 75 87
b 24 9 23 37 49 51 63 75 87
b 25 9 23 37 39 51 63 75 87
b 26 9 11 23 37 39 51
b 27 9 10 11 23
b 28 11 23 25 37 39 51
b 29 11 23 24 25 37
b 30 11 25 26 39
b 31 25 37 38 39 51
b 32 39 51 63 65 75 87
b 33 39 51 52 65
b 34 51 63 65 75 87 89
b 35 51 63 65 75 77 89
b 36 51 63 64 65 77
b 37 63 75 76 77 89
b 38 65 77 89 90
b 39 75 87 88 89
b 40 37 49 50 51 63
b 41 23 35 36 37 49
b 42 9 21 22 23 35
b 43 49 61 62 63 75
b 44 61 73 74 75 87
b 45 35 47 48 49 61
b 46 21 33 34 35 47
b 47 7 19 20 21 33
b 48 47 59 60 61 73
b 49 33 45 46 47 59
b 50 19 31 32 33 45
b 51 5 17 18 19 31
b 52 3 17 31 45 59 73 85 87
b 53 3 17 31 45 59 71 73 85
b 54 3 17 31 45 57 59 71 85
b 55 3 17 31 45 57 71 83 85
b 56 3 17 31 45 57 69 71 83
b 57 3 17 31 43 45 57 69 83
b 58 3 17 31 43 55 57 69 83
b 59 3 17 29 31 43 55 69 83
b 60 3 17 29 41 43 55 69 83
b 61 3 17 29 41 53 55 69 83
b 62 3 17 27 29 41 53
b 63 3 15 17 27 29 41
b 64 3 14 15 27
b 65 3 15 16 17 29
b 66 15 27 28 29 41
b 67 27 40 41 53
b 68 41 53 55 69 81 83
b 69 41 53 55 67 69 81
b 70 41 53 54 55 67
b 71 55 67 68 69 81
b 72 53 67 80 81
b 73 69 81 82 83
b 74 29 41 42 43 55
b 75 17 29 30 31 43
b 76 43 55 56 57 69
b 77 31 43 44 45 57
b 78 57 69 70 71 83
b 79 71 83 84 85
b 80 45 57 58 59 71
b 81 59 71 72 73 85
b 82 73 85 86 87
b 83 53 66 67 80
b 84 65 77 78 90
1 5
2 6
3 83
4 84
5 64
6 30
7 8
7 52
8 9
9 10
9 51
10 11
10 50
11 12
11 49
12 13
12 48
13 14
13 15
15 16
15 47
16 17
16 46
17 18
17 45
18 19
18 44
19 20
19 43
20 21
20 22
22 23
22 42
23 24
23 41
24 25
24 40
25 26
25 32
26 27
26 28
28 29
28 30
28 31
32 33
32 34
34 35
34 39
35 36
35 37
35 38
38 84
52 53
52 82
53 54
53 81
54 55
54 80
55 56
55 79
56 57
56 78
57 58
57 77
58 59
58 76
59 60
59 75
60 61
60 74
61 62
61 68
62 63
62 67
63 64
63 65
63 66
68 69
68 73
69 70
69 71
69 72
72 83
